c A SAT instance generated from a 3-CNF formula that had 90 clauses and 15 variables
p cnf 15 90
2 -5 -13 0
-1 4 11 0
-3 2 -5 0
1 9 11 0
9 1 -12 0
-12 -15 4 0
-8 15 14 0
4 11 -13 0
-11 1 13 0
-2 4 -12 0
14 13 1 0
-2 -3 -14 0
-11 15 -8 0
10 -2 8 0
-7 -4 -9 0
1 14 -6 0
3 9 -12 0
2 -4 15 0
-13 -3 12 0
-1 -6 -8 0
-5 -2 10 0
11 13 -6 0
-10 -5 -13 0
-2 9 4 0
5 8 -7 0
-5 -14 1 0
-12 11 2 0
15 12 13 0
-10 -8 15 0
10 -4 2 0
2 14 -6 0
-3 15 -7 0
9 3 2 0
-9 2 -6 0
7 -14 -2 0
-14 -10 -9 0
5 12 -14 0
5 11 9 0
-1 -4 -15 0
15 2 1 0
-14 5 11 0
1 -3 11 0
8 -5 -3 0
-7 8 -4 0
4 -14 2 0
12 -5 -2 0
9 12 -11 0
-12 9 10 0
5 -8 15 0
-14 -4 5 0
-13 -3 12 0
-11 -4 -13 0
1 -15 -14 0
12 -10 3 0
-11 -5 10 0
12 -9 -8 0
-10 -8 -4 0
-2 11 8 0
-12 -13 7 0
7 1 -6 0
-11 -8 -15 0
-14 -13 9 0
13 -12 10 0
-15 -3 13 0
3 -2 9 0
-4 12 8 0
4 -8 -14 0
-6 -5 7 0
-2 8 -3 0
-1 7 -3 0
14 -15 3 0
1 11 -2 0
-5 -15 -6 0
-4 -14 -10 0
9 4 -2 0
-9 14 -3 0
5 12 -4 0
-6 13 -15 0
-13 4 -8 0
-13 -9 -15 0
9 -10 4 0
13 3 12 0
-13 1 -8 0
-12 -2 7 0
13 2 -5 0
9 -4 6 0
-4 2 -11 0
7 3 -15 0
-12 5 9 0
11 -5 10 0
%
0

41 65 48 48 23 82 63 3 45 31 70 5 88 44 75
